10
0	784	8	734	383	21	633	387	62	338	
784	0	439	711	381	359	899	540	141	458	
8	439	0	180	532	697	128	108	867	867	
734	711	180	0	135	682	471	542	763	476	
383	381	532	135	0	166	821	511	434	791	
21	359	697	682	166	0	714	247	355	460	
633	899	128	471	821	714	0	752	380	682	
387	540	108	542	511	247	752	0	349	717	
62	141	867	763	434	355	380	349	0	552	
338	458	867	476	791	460	682	717	552	0	
